data;

set A := 212 375 115 861 528 679 213 571 1 646 618 708 656 836 388 9 447 747 615 805 140 943 441 491 854 972 147 515 158 628 93 813 200 70 493 923 367 127 16 755 907 580 851 462 181 540 67 154 76 425 534 676 771 239 144 604;
param T := 14000;

end;
